sat
(:added-eqs               14
 :arith-branch            130
 :arith-conflicts         11
 :arith-cube-calls        32
 :arith-cube-success      1
 :arith-dio-calls         5
 :arith-fixed-eqs         15
 :arith-gcd-calls         131
 :arith-lower             99
 :arith-make-feasible     170
 :arith-max-columns       212
 :arith-max-rows          84
 :arith-patches           131
 :arith-upper             226
 :conflicts               11
 :decisions               141
 :final-checks            131
 :max-memory              58.22
 :memory                  21.27
 :mk-bool-var             327
 :mk-clause               12
 :num-allocs              6249635804.00
 :num-checks              2
 :propagations            3
 :rlimit-count            16301581
 :sat-backjumps           48802
 :sat-backtracks          122
 :sat-conflicts           48924
 :sat-decisions           171824
 :sat-del-clause          15301
 :sat-elim-bool-vars-res  2817
 :sat-elim-clauses        935
 :sat-elim-literals       525
 :sat-minimized-lits      582301
 :sat-mk-clause-2ary      37090
 :sat-mk-clause-3ary      9943
 :sat-mk-clause-nary      139712
 :sat-mk-var              34436
 :sat-probing-assigned    217
 :sat-propagations-2ary   8511673
 :sat-propagations-nary   7078012
 :sat-restarts            6844
 :sat-scc-elim-binary     2
 :sat-scc-elim-vars       1
 :sat-subs-resolution     72
 :sat-subs-resolution-dyn 13947
 :sat-subsumed            103
 :sat-units               238
 :time                    7.07
 :total-time              7.09)
